Total weight: 1562.7
Route 1: 0 61 81 0 
Route 2: 0 95 62 67 91 0 
Route 3: 0 42 44 38 40 43 0 
Route 4: 0 55 88 53 98 0 
Route 5: 0 82 99 52 57 83 0 
Route 6: 0 17 14 47 15 16 13 9 0 
Route 7: 0 39 36 35 37 41 72 54 96 0 
Route 8: 0 65 64 51 19 49 48 20 24 0 
Route 9: 0 69 11 10 12 60 0 
Route 10: 0 85 63 76 84 56 66 80 0 
Route 11: 0 78 73 79 7 2 70 0 
Route 12: 0 90 86 74 87 59 97 75 58 0 
Route 13: 0 45 5 46 8 6 4 3 1 100 0 
Route 14: 0 33 26 27 29 31 34 71 93 94 0 
Route 15: 0 22 23 21 18 25 77 0 
Route 16: 0 92 50 30 28 32 89 0 
Route 17: 0 68 0 
